20388 12612 1629
16172 19828 2126
17988 19012 1958
20158 13842 1782
19899 16101 1770
15443 17557 2155
15974 20026 2123
16381 17619 2155
15063 19937 2139
19320 17680 1987
19451 17549 1856
12336 21664 1979
17148 19852 2099
19762 16238 1890
19738 15262 1914
13937 21063 2080
15792 20208 2119
18674 18326 2064
16768 20232 2092
18849 18151 2049
15864 18136 2154
16833 19167 2129
15175 20825 2077
18160 16840 2106
17900 17100 2115
17450 18550 2130
15623 18377 2152
19896 15104 1864
13332 21668 1978
16087 20913 2023
14431 21569 1931
18546 18454 2074
9868 22132 1722
15923 21077 1940
12015 21985 1917
16486 18514 2144
17665 19335 2100
19119 17881 2015
20400 12600 1590
14381 20619 2108
19063 16937 2039
11919 22081 1877
20266 14734 1710
13157 21843 1889
19629 16371 1932
15922 19078 2145
19846 16154 1842
18222 17778 2100
